p cnf 86 291
-3 4 -5 0
3 -4 -5 0
-3 -4 5 0
3 4 5 0
-2 -5 -6 0
2 5 -6 0
-2 5 6 0
2 -5 6 0
-7 1 0
-7 -6 0
-1 6 7 0
8 -9 -10 0
-8 9 -10 0
8 9 10 0
-8 -9 10 0
12 -11 0
12 -1 0
11 1 -12 0
12 4 -13 0
-12 -4 -13 0
12 -4 13 0
-12 4 13 0
-3 -13 -14 0
3 13 -14 0
-3 13 14 0
3 -13 14 0
15 10 0
15 14 0
-10 -14 -15 0
-15 -3 -16 0
15 3 -16 0
-15 3 16 0
15 -3 16 0
17 -7 0
17 -16 0
7 16 -17 0
-9 -18 -19 0
9 18 -19 0
-9 18 19 0
9 -18 19 0
20 -19 0
20 -11 0
19 11 -20 0
-3 19 -22 0
3 -19 -22 0
-3 -19 22 0
3 19 22 0
23 21 0
23 22 0
-21 -22 -23 0
-24 -20 0
-24 -23 0
20 23 24 0
26 -3 0
26 25 0
3 -25 -26 0
2 -26 -27 0
-2 26 -27 0
2 26 27 0
-2 -26 27 0
1 -27 -28 0
-1 27 -28 0
1 27 28 0
-1 -27 28 0
-29 -23 0
-29 28 0
23 -28 29 0
-24 29 -30 0
24 -29 -30 0
-24 -29 30 0
24 29 30 0
17 30 -31 0
-17 -30 -31 0
17 -30 31 0
-17 30 31 0
-34 4 0
-34 -33 0
-4 33 34 0
2 -34 -35 0
-2 34 -35 0
2 34 35 0
-2 -34 35 0
-36 34 0
-36 26 0
-34 -26 36 0
-37 -35 0
-37 -36 0
35 36 37 0
27 37 -38 0
-27 -37 -38 0
27 -37 38 0
-27 37 38 0
40 -38 0
40 -39 0
38 39 -40 0
-41 -32 0
-41 -40 0
32 40 41 0
42 -34 0
42 38 0
34 -38 -42 0
-43 -41 0
-43 -42 0
41 42 43 0
-44 31 0
-44 43 0
-31 -43 44 0
45 4 0
45 -35 0
-4 35 -45 0
-46 18 0
-46 -45 0
-18 45 46 0
46 3 -47 0
-46 -3 -47 0
46 -3 47 0
-46 3 47 0
-49 11 0
-49 -48 0
-11 48 49 0
50 47 0
50 49 0
-47 -49 -50 0
51 44 0
51 -50 0
-44 50 -51 0
2 52 0
-2 52 0
-3 48 -53 0
3 -48 -53 0
-3 -48 53 0
3 48 53 0
-54 -8 0
-54 -19 0
8 19 54 0
54 -18 -55 0
-54 18 -55 0
54 18 55 0
-54 -18 55 0
53 -55 -56 0
-53 55 -56 0
53 55 56 0
-53 -55 56 0
57 -21 0
57 2 0
21 -2 -57 0
-8 57 -58 0
8 -57 -58 0
-8 -57 58 0
8 57 58 0
58 -5 -59 0
-58 5 -59 0
58 5 59 0
-58 -5 59 0
-60 56 0
-60 59 0
-56 -59 60 0
-52 60 -61 0
52 -60 -61 0
-52 -60 61 0
52 60 61 0
62 35 0
62 -57 0
-35 57 -62 0
-63 -62 0
-63 9 0
62 -9 63 0
-47 -13 -64 0
47 13 -64 0
-47 13 64 0
47 -13 64 0
-65 63 0
-65 64 0
-63 -64 65 0
66 -2 0
66 -22 0
2 22 -66 0
-67 66 0
-67 48 0
-66 -48 67 0
21 48 -68 0
-21 -48 -68 0
21 -48 68 0
-21 48 68 0
-69 -36 0
-69 8 0
36 -8 69 0
-70 -8 0
-70 9 0
8 -9 70 0
71 69 0
71 -70 0
-69 70 -71 0
21 8 -72 0
-21 -8 -72 0
21 -8 72 0
-21 8 72 0
-73 72 0
-73 34 0
-72 -34 73 0
-74 -71 0
-74 -73 0
71 73 74 0
-75 5 0
-75 -66 0
-5 66 75 0
-76 -8 0
-76 75 0
8 -75 76 0
-76 58 -77 0
76 -58 -77 0
-76 -58 77 0
76 58 77 0
78 -11 0
78 19 0
11 -19 -78 0
24 -78 -79 0
-24 78 -79 0
24 78 79 0
-24 -78 79 0
-80 -77 0
-80 -79 0
77 79 80 0
81 -74 0
81 -80 0
74 80 -81 0
-82 -68 0
-82 -81 0
68 81 82 0
83 -67 0
83 82 0
67 -82 -83 0
-84 -65 0
-84 -83 0
65 83 84 0
-61 -84 -85 0
61 84 -85 0
-61 84 85 0
61 -84 85 0
86 -51 0
86 85 0
51 -85 -86 0
16 -39 -73 0
9 -43 -7 -1 -84 8 0
42 -3 66 61 0
-72 85 -66 -70 78 0
8 79 0
-62 82 69 -48 0
63 5 -74 -6 12 68 0
-17 -76 -5 79 0
-62 -48 17 66 2 63 0
-62 83 29 -80 39 -79 0
85 -18 -19 0
77 70 71 3 0
-47 37 -83 -60 0
67 70 21 -56 0
-59 8 -77 0
-70 -65 -71 25 0
8 -25 0
44 -2 -65 0
-69 -75 35 82 -67 0
7 18 -38 -56 -65 -62 0
70 -79 0
-70 -15 45 41 0
-82 -9 -49 0
-64 -9 74 -34 -73 0
43 64 45 0
-18 5 -56 0
10 -31 0
-52 17 56 -50 58 0
9 -41 60 32 24 15 0
18 54 -51 0
9 58 0
-2 68 24 -85 0
-25 59 12 4 0
-16 -44 43 20 -26 0
46 30 0
66 14 34 0
84 33 -2 -82 0
4 -17 0
64 -41 -48 62 0
31 63 81 -79 17 55 0
30 -53 16 78 -71 8 0
60 71 -22 61 0
-52 -10 51 77 6 31 0
-24 36 -40 81 0
22 53 0
57 -33 23 0
-18 74 -63 19 -86 0
57 -32 86 56 0
86 0
